p wcnf 142 213 214 
1 122 -58 0 
1 -140 -60 0 
1 125 -121 0 
1 118 -17 0 
1 -86 19 0 
1 76 -117 0 
1 -81 -114 0 
1 49 135 0 
1 -138 -94 0 
1 108 -98 0 
1 -142 -8 0 
1 -64 83 0 
1 -99 3 0 
1 -15 -74 0 
1 105 -133 0 
1 -59 -7 0 
1 14 108 0 
1 75 -122 0 
1 -30 -104 0 
1 -79 -141 0 
1 -124 5 0 
1 -124 106 0 
1 96 38 0 
1 -19 35 0 
1 -58 2 0 
1 -44 -32 0 
1 129 -98 0 
1 -98 -41 0 
1 -44 -127 0 
1 6 -121 0 
1 -71 23 0 
1 -77 78 0 
1 -44 -69 0 
1 -21 82 0 
1 -70 130 0 
1 -121 -63 0 
1 126 -96 0 
1 -74 111 0 
1 -64 -80 0 
1 5 -127 0 
1 121 69 0 
1 119 22 0 
1 6 14 0 
1 -116 19 0 
1 -39 53 0 
1 14 47 0 
1 79 86 0 
1 -74 28 0 
1 -29 107 0 
1 -21 -28 0 
1 63 -76 0 
1 44 -122 0 
1 -57 38 0 
1 -8 108 0 
1 117 -132 0 
1 -25 -49 0 
1 19 64 0 
1 -94 17 0 
1 -138 -70 0 
1 -34 -119 0 
1 -77 14 0 
1 58 -86 0 
1 64 13 0 
1 -76 116 0 
1 120 105 0 
1 -31 -51 0 
1 -27 35 0 
1 7 20 0 
1 -19 100 0 
1 138 124 0 
1 100 87 0 
1 -67 -37 0 
1 34 -113 0 
1 -5 125 0 
1 -56 87 0 
1 -121 -72 0 
1 135 -137 0 
1 -88 44 0 
1 -130 -68 0 
1 -91 -138 0 
1 -53 -45 0 
1 -37 93 0 
1 25 26 0 
1 -72 -109 0 
1 -31 50 0 
1 80 -10 0 
1 -29 -90 0 
1 71 -37 0 
1 -41 80 0 
1 -12 -107 0 
1 99 53 0 
1 96 37 0 
1 63 2 0 
1 76 -131 0 
1 64 -10 0 
1 120 132 0 
1 -45 -5 0 
1 18 -13 0 
1 -25 140 0 
1 -16 -20 0 
1 109 65 0 
1 -2 134 0 
1 -29 30 0 
1 99 -1 0 
1 104 4 0 
1 90 -44 0 
1 116 -26 0 
1 -131 -45 0 
1 5 106 0 
1 -65 -77 0 
1 -111 94 0 
1 -70 -116 0 
1 -82 139 0 
1 -91 -84 0 
1 32 111 0 
1 -17 119 0 
1 -58 3 0 
1 84 -28 0 
1 -2 111 0 
1 -97 69 0 
1 109 -49 0 
1 96 -72 0 
1 -101 -7 0 
1 -17 11 0 
1 -12 100 0 
1 -116 31 0 
1 20 -50 0 
1 -137 112 0 
1 128 44 0 
1 58 -41 0 
1 -98 -134 0 
1 -28 110 0 
1 26 136 0 
1 19 116 0 
1 13 -129 0 
1 -102 -117 0 
1 -63 141 0 
1 -90 25 0 
1 -19 -45 0 
1 18 -26 0 
1 -85 -35 0 
1 142 47 0 
1 122 116 0 
1 113 69 0 
1 -60 57 0 
1 36 114 0 
1 32 -33 0 
1 110 66 0 
1 72 85 0 
1 54 3 0 
1 -94 89 0 
1 -64 7 0 
1 41 -96 0 
1 142 16 0 
1 42 123 0 
1 82 -39 0 
1 -83 129 0 
1 -17 45 0 
1 -26 82 0 
1 84 142 0 
1 57 59 0 
1 5 -10 0 
1 -35 -117 0 
1 21 -5 0 
1 -59 91 0 
1 3 141 0 
1 140 101 0 
1 86 -108 0 
1 -115 105 0 
1 -121 -31 0 
1 42 -32 0 
1 -59 125 0 
1 -125 122 0 
1 -92 -47 0 
1 83 -27 0 
1 -49 97 0 
1 -73 47 0 
1 -106 -94 0 
1 78 10 0 
1 -138 5 0 
1 -79 -38 0 
1 -46 8 0 
1 133 90 0 
1 80 -25 0 
1 -63 26 0 
1 -125 -46 0 
1 -80 137 0 
1 122 -7 0 
1 112 -39 0 
1 -98 25 0 
1 29 -96 0 
1 137 -15 0 
1 120 -113 0 
1 -35 -27 0 
1 35 -137 0 
1 -57 -46 0 
1 -94 26 0 
1 11 -22 0 
1 -115 109 0 
1 -47 -94 0 
1 121 -11 0 
1 26 53 0 
1 12 -100 0 
1 -17 68 0 
1 73 119 0 
1 2 -77 0 
1 -129 3 0 
1 -141 112 0 
1 -110 -77 0 
1 -22 -89 0 
1 52 78 0 
1 128 -49 0 
1 -96 -131 0 
